
Gurobi 9.5.0 (win64) logging started Tue Dec  7 12:39:48 2021

Set parameter LogFile to value "../results/logs/log_2021_12_07_12_26.csv_9_65.log"
Set parameter Method to value 3
Gurobi Optimizer version 9.5.0 build v9.5.0rc5 (win64)
Thread count: 6 physical cores, 12 logical processors, using up to 12 threads
Optimize a model with 238 rows, 9882 columns and 8569 nonzeros
Model fingerprint: 0x244204b7
Variable types: 4941 continuous, 4941 integer (4941 binary)
Coefficient statistics:
  Matrix range     [1e+00, 9e+00]
  Objective range  [1e+00, 1e+00]
  Bounds range     [1e+00, 1e+00]
  RHS range        [1e+00, 7e+01]
Found heuristic solution: objective -0.0000000
Presolve removed 171 rows and 9769 columns
Presolve time: 0.01s
Presolved: 67 rows, 113 columns, 403 nonzeros
Extracted 24 lazy constraints
Variable types: 60 continuous, 53 integer (51 binary)

Root relaxation: objective 4.461728e+01, 23 iterations, 0.00 seconds (0.00 work units)

    Nodes    |    Current Node    |     Objective Bounds      |     Work
 Expl Unexpl |  Obj  Depth IntInf | Incumbent    BestBd   Gap | It/Node Time

     0     0   44.61728    0   15   -0.00000   44.61728      -     -    0s
H    0     0                      11.0000000   44.61728   306%     -    0s
     0     0   27.56539    0   20   11.00000   27.56539   151%     -    0s
     0     0   26.17414    0   19   11.00000   26.17414   138%     -    0s
     0     0   26.14349    0   15   11.00000   26.14349   138%     -    0s
     0     0   26.13276    0   14   11.00000   26.13276   138%     -    0s
     0     0   25.84162    0   14   11.00000   25.84162   135%     -    0s
H    0     0                      25.0000000   25.83636  3.35%     -    0s
     0     0   25.83636    0   14   25.00000   25.83636  3.35%     -    0s

Cutting planes:
  Gomory: 5
  Implied bound: 6
  MIR: 26
  RLT: 5
  Relax-and-lift: 2
  Lazy constraints: 24

Explored 1 nodes (193 simplex iterations) in 0.03 seconds (0.01 work units)
Thread count was 12 (of 12 available processors)

Solution count 3: 25 11 -0 

Optimal solution found (tolerance 1.00e-04)
Best objective 2.500000000000e+01, best bound 2.500000000000e+01, gap 0.0000%
